Generated by cif2cell 2.1.0.  :  Failed to get author information, No journal information.
 1.0
  3.290669290000000   0.000000000000000   0.000000000000000
  1.645334593952920   2.849803091501283   0.000000000000000
  1.645334853142943   0.949934588714426   2.686819674961094
   O  Li
   1   2
Direct
  0.000000000000000   0.000000000000000   0.000000000000000 
  0.750000000000000   0.750000000000000   0.750000000000000 
  0.250000000000000   0.250000000000000   0.250000000000000 
