OXC                                     
   1.00000000000000     
    10.4160821571638529    0.0000000000000000    0.0000000000000000
     0.0000000000000000    6.0698320946163467   -0.0000000452662484
     0.0000000000000000   -0.0000017819632659    4.7496188689796224
   O    P    Li   Fe
    16     4     4     4
Direct
  0.1125802908281854  0.2500008674915659  0.7504342981632866
  0.8363049336761682  0.5497803690051074  0.7169305841446318
  0.8363062785852988  0.9502206312647922  0.7169315286142875
  0.8874617327743864  0.7499993900496216  0.2495429875445911
  0.0427385732438432  0.7500000252867248  0.6810723374374462
  0.3874091087735574  0.7499986198324435  0.2504584213507458
  0.1637169401152709  0.0497616639415312  0.2830457115883349
  0.6636926548533721  0.4502080096630743  0.2169533479070245
  0.3362705458210141  0.5497738786472195  0.7830654106693826
  0.3362701144536021  0.9502277113761411  0.7830669872583736
  0.9572887319736234  0.2499985586572222  0.3189185781226572
  0.4572736255712184  0.2499999039455300  0.1811001622779775
  0.5427140182894027  0.7500002195217270  0.8189969020829357
  0.6125554235786295  0.2500006135223483  0.7495745607723525
  0.6636924566988280  0.0497913666329843  0.2169524613846684
  0.1637172578481461  0.4502374117927032  0.2830440156396884
  0.0985930643155451  0.2499996645778360  0.4323170556645588
  0.4014061170252767  0.7499998256437040  0.9323329940477506
  0.5985744599901318  0.2499996576280369  0.0677161215086309
  0.9014283854177535  0.7499998611738078  0.5676701453729933
  0.0000162904863998 -0.0000014208022173 -0.0000446168623172
  0.4999939480171117  0.5000345931142929  0.5000207858507690
  0.4999940251202037 -0.0000349670715706  0.5000194406363031
  0.0000179123163681  0.5000041704578292 -0.0000474601850377
  0.7759827514245615  0.2500002746911302  0.4800426052536717
  0.7240442950138883  0.7500002760700071 -0.0199143434751337
  0.2759513481015517  0.2500001744048486  1.0199269873446861
  0.2240200794477306  0.7500003168017607  0.5199064307326763
 
  0.50677516E-02 -0.81509325E-06  0.22107271E-02
 -0.19854536E-02 -0.68479145E-02 -0.24486871E-02
 -0.19864208E-02  0.68469964E-02 -0.24501575E-02
 -0.50760034E-02  0.48272318E-06 -0.22285178E-02
  0.27414634E-02 -0.13385462E-06  0.53725768E-02
 -0.50595938E-02  0.72566384E-06  0.22180709E-02
  0.19666588E-02 -0.68616575E-02  0.24542809E-02
  0.19785916E-02  0.68386313E-02 -0.24417507E-02
 -0.19780879E-02 -0.68246307E-02  0.24471634E-02
 -0.19780486E-02  0.68234473E-02  0.24470972E-02
 -0.27346141E-02  0.43880278E-06 -0.53818939E-02
 -0.27258489E-02  0.13337393E-06  0.53827620E-02
  0.27430352E-02 -0.11733538E-06 -0.53635707E-02
  0.50795740E-02 -0.19706985E-06 -0.22369813E-02
  0.19786549E-02 -0.68380876E-02 -0.24400958E-02
  0.19653928E-02  0.68616985E-02  0.24530499E-02
  0.43830924E-03  0.37628507E-07 -0.86388270E-04
 -0.44211696E-03  0.59849844E-06 -0.76412764E-04
  0.44269304E-03 -0.28458045E-06  0.75866003E-04
 -0.44873037E-03  0.90703379E-07  0.10576335E-03
 -0.44985191E-05 -0.59919878E-06  0.19973360E-05
  0.89012932E-05 -0.24166816E-04  0.15776670E-05
  0.84016617E-05  0.23595915E-04  0.22171610E-05
 -0.43058715E-05  0.31456012E-06  0.23390440E-05
 -0.18155704E-02  0.95586253E-07  0.65763619E-03
  0.18096689E-02  0.14151322E-06  0.64781151E-03
 -0.18059722E-02 -0.10034364E-06 -0.65681151E-03
  0.18171121E-02  0.11735262E-07 -0.65840153E-03
 
           1
   1.00000000000000     
 -0.32361436E+00 -0.37937887E-01 -0.33176141E-01 -0.28805734E+00
  0.11306682E+00  0.25000073E+00  0.75089975E+00
  0.83611432E+00  0.54865218E+00  0.71641503E+00
  0.83611557E+00  0.95134867E+00  0.71641566E+00
  0.88697441E+00  0.74999947E+00  0.24907379E+00
  0.43001768E-01  0.75000000E+00  0.68220350E+00
  0.38692336E+00  0.74999874E+00  0.25092542E+00
  0.16390575E+00  0.48631211E-01  0.28356244E+00
  0.66388261E+00  0.45133467E+00  0.21643925E+00
  0.33608064E+00  0.54864953E+00  0.78358064E+00
  0.33608021E+00  0.95135187E+00  0.78358221E+00
  0.95702619E+00  0.24999863E+00  0.31778546E+00
  0.45701193E+00  0.24999993E+00  0.18223347E+00
  0.54297736E+00  0.75000020E+00  0.81786764E+00
  0.61304309E+00  0.25000058E+00  0.74910358E+00
  0.66388242E+00  0.48664797E-01  0.21643872E+00
  0.16390595E+00  0.45136787E+00  0.28356049E+00
  0.98635144E-01  0.24999967E+00  0.43229887E+00
  0.40136367E+00  0.74999992E+00  0.93231691E+00
  0.59861696E+00  0.24999961E+00  0.67732095E-01
  0.90138530E+00  0.74999988E+00  0.56769241E+00
  0.15858604E-04  0.99999848E+00  0.99995580E+00
  0.49999480E+00  0.50003061E+00  0.50002112E+00
  0.49999483E+00  0.99996892E+00  0.50001991E+00
  0.17498930E-04  0.50000422E+00  0.99995303E+00
  0.77580845E+00  0.25000029E+00  0.48018107E+00
  0.72421803E+00  0.75000030E+00  0.98022205E+00
  0.27577797E+00  0.25000016E+00  0.19788700E-01
  0.22419453E+00  0.75000032E+00  0.51976781E+00
  0.00000000E+00  0.00000000E+00  0.00000000E+00
  0.00000000E+00  0.00000000E+00  0.00000000E+00
  0.00000000E+00  0.00000000E+00  0.00000000E+00
  0.00000000E+00  0.00000000E+00  0.00000000E+00
  0.00000000E+00  0.00000000E+00  0.00000000E+00
  0.00000000E+00  0.00000000E+00  0.00000000E+00
  0.00000000E+00  0.00000000E+00  0.00000000E+00
  0.00000000E+00  0.00000000E+00  0.00000000E+00
  0.00000000E+00  0.00000000E+00  0.00000000E+00
  0.00000000E+00  0.00000000E+00  0.00000000E+00
  0.00000000E+00  0.00000000E+00  0.00000000E+00
  0.00000000E+00  0.00000000E+00  0.00000000E+00
  0.00000000E+00  0.00000000E+00  0.00000000E+00
  0.00000000E+00  0.00000000E+00  0.00000000E+00
  0.00000000E+00  0.00000000E+00  0.00000000E+00
  0.00000000E+00  0.00000000E+00  0.00000000E+00
  0.00000000E+00  0.00000000E+00  0.00000000E+00
  0.00000000E+00  0.00000000E+00  0.00000000E+00
  0.00000000E+00  0.00000000E+00  0.00000000E+00
  0.00000000E+00  0.00000000E+00  0.00000000E+00
  0.00000000E+00  0.00000000E+00  0.00000000E+00
  0.00000000E+00  0.00000000E+00  0.00000000E+00
  0.00000000E+00  0.00000000E+00  0.00000000E+00
  0.00000000E+00  0.00000000E+00  0.00000000E+00
  0.00000000E+00  0.00000000E+00  0.00000000E+00
  0.00000000E+00  0.00000000E+00  0.00000000E+00
  0.00000000E+00  0.00000000E+00  0.00000000E+00
  0.00000000E+00  0.00000000E+00  0.00000000E+00
  0.00000000E+00  0.00000000E+00  0.00000000E+00
  0.00000000E+00  0.00000000E+00  0.00000000E+00
  0.00000000E+00  0.00000000E+00  0.00000000E+00
  0.00000000E+00  0.00000000E+00  0.00000000E+00
  0.00000000E+00  0.00000000E+00  0.00000000E+00
  0.00000000E+00  0.00000000E+00  0.00000000E+00
  0.00000000E+00  0.00000000E+00  0.00000000E+00
  0.00000000E+00  0.00000000E+00  0.00000000E+00
  0.00000000E+00  0.00000000E+00  0.00000000E+00
  0.00000000E+00  0.00000000E+00  0.00000000E+00
  0.00000000E+00  0.00000000E+00  0.00000000E+00
  0.00000000E+00  0.00000000E+00  0.00000000E+00
  0.00000000E+00  0.00000000E+00  0.00000000E+00
  0.00000000E+00  0.00000000E+00  0.00000000E+00
  0.00000000E+00  0.00000000E+00  0.00000000E+00
  0.00000000E+00  0.00000000E+00  0.00000000E+00
  0.00000000E+00  0.00000000E+00  0.00000000E+00
  0.00000000E+00  0.00000000E+00  0.00000000E+00
  0.00000000E+00  0.00000000E+00  0.00000000E+00
  0.00000000E+00  0.00000000E+00  0.00000000E+00
  0.00000000E+00  0.00000000E+00  0.00000000E+00
  0.00000000E+00  0.00000000E+00  0.00000000E+00
  0.00000000E+00  0.00000000E+00  0.00000000E+00
  0.00000000E+00  0.00000000E+00  0.00000000E+00
  0.00000000E+00  0.00000000E+00  0.00000000E+00
  0.00000000E+00  0.00000000E+00  0.00000000E+00
  0.00000000E+00  0.00000000E+00  0.00000000E+00
  0.00000000E+00  0.00000000E+00  0.00000000E+00
