OXC
   1.00000000000000     
    10.4160821571638529    0.0000000000000000    0.0000000000000000
     0.0000000000000000    6.0698320946163467   -0.0000000452662484
     0.0000000000000000   -0.0000017819632659    4.7496188689796224
   O    P    Li   Fe
    16     4     4     4
Direct
  0.0960191267872729  0.2499999999975225  0.7416326477086376
  0.8347736445645531  0.5465691223091446  0.7147012105574150
  0.8347736445645531  0.9534318776929424  0.7147012105541845
  0.9039818732127317  0.7500000000024775  0.2583683522913670
  0.0437645269814826  0.7500000000003562  0.7078254725180330
  0.4039808732127271  0.7499999999975225  0.2416316477086329
  0.1652263554354472  0.0465691223070625  0.2852997894458131
  0.6652263554354469  0.4534308776929375  0.2147002105541868
  0.3347736445645529  0.5465691223070622  0.7852997894458130
  0.3347736445645529  0.9534318776908600  0.7852997894425825
  0.9562354730185176  0.2499999999996437  0.2921755274819649
  0.4562354730185174  0.2500000000003562  0.2078244725180353
  0.5437645269814824  0.7499999999996438  0.7921765274819620
  0.5960191267872729  0.2500000000024774  0.7583693522913645
  0.6652263554354469  0.0465691223091445  0.2147002105574172
  0.1652263554354472  0.4534308776908554  0.2852997894425830
  0.0939898089893234  0.2500000000005141  0.4180879818693084
  0.4060101910106765  0.7500000000005139  0.9180889818693129
  0.5939898089893236  0.2499999999994858  0.0819100181306895
  0.9060101910106764  0.7499999999994861  0.5819110181306871
 -0.0000000000000000  0.0000000000000000  0.0000000000000000
  0.5000000000000000  0.5000000000000000  0.5000000000000000
  0.5000000000000000  0.0000000000000000  0.5000000000000000
 -0.0000000000000000  0.5000000000000000  0.0000000000000000
  0.7808976510300796  0.2499999999977527  0.5254694412028162
  0.7191023489699204  0.7499999999977527  0.0254714412028182
  0.2808976510300800  0.2500000000022473  0.9745295587971792
  0.2191023489699200  0.7500000000022473  0.4745295587971793
 
  0.00000000E+00  0.00000000E+00  0.00000000E+00
  0.00000000E+00  0.00000000E+00  0.00000000E+00
  0.00000000E+00  0.00000000E+00  0.00000000E+00
  0.00000000E+00  0.00000000E+00  0.00000000E+00
  0.00000000E+00  0.00000000E+00  0.00000000E+00
  0.00000000E+00  0.00000000E+00  0.00000000E+00
  0.00000000E+00  0.00000000E+00  0.00000000E+00
  0.00000000E+00  0.00000000E+00  0.00000000E+00
  0.00000000E+00  0.00000000E+00  0.00000000E+00
  0.00000000E+00  0.00000000E+00  0.00000000E+00
  0.00000000E+00  0.00000000E+00  0.00000000E+00
  0.00000000E+00  0.00000000E+00  0.00000000E+00
  0.00000000E+00  0.00000000E+00  0.00000000E+00
  0.00000000E+00  0.00000000E+00  0.00000000E+00
  0.00000000E+00  0.00000000E+00  0.00000000E+00
  0.00000000E+00  0.00000000E+00  0.00000000E+00
  0.00000000E+00  0.00000000E+00  0.00000000E+00
  0.00000000E+00  0.00000000E+00  0.00000000E+00
  0.00000000E+00  0.00000000E+00  0.00000000E+00
  0.00000000E+00  0.00000000E+00  0.00000000E+00
  0.00000000E+00  0.00000000E+00  0.00000000E+00
  0.00000000E+00  0.00000000E+00  0.00000000E+00
  0.00000000E+00  0.00000000E+00  0.00000000E+00
  0.00000000E+00  0.00000000E+00  0.00000000E+00
  0.00000000E+00  0.00000000E+00  0.00000000E+00
  0.00000000E+00  0.00000000E+00  0.00000000E+00
  0.00000000E+00  0.00000000E+00  0.00000000E+00
  0.00000000E+00  0.00000000E+00  0.00000000E+00
