OXC                                     
   1.00000000000000     
    10.4191024099099483    0.0000000000000000    0.0000000000000000
     0.0000000000000000    6.0699434667161691   -0.0000000450567787
     0.0000000000000000   -0.0000017818344926    4.7491884620912188
   P    Li   O    Fe
     4     4    16     4
Direct
  0.1126240402345436  0.2499970551314577  0.4474518003870549
  0.3873877515653061  0.7499980008191961  0.9474700597405052
  0.6126400752622264  0.2499995743947304  0.0525398805223208
  0.8873892351505205  0.7500015719972555  0.5525479771528363
 -0.0000027870341266  0.0000343312195847  0.0000424325057233
  0.4999290742589146  0.5001411009171697  0.4998310519930989
  0.4998999429180025 -0.0001018771483704  0.4998003967421183
  0.0000283085886291  0.5000023415200932  0.0000159499065959
  0.1086455576354264  0.2499976480521283  0.7716136773281889
  0.8331518789291198  0.5398131182436254  0.7002656734715917
  0.8331548735631328  0.9601912210083373  0.7002634750313833
  0.8912945811715812  0.7499964694633198  0.2284006546565912
  0.0269497420912946  0.7500004028091769  0.6706259809186741
  0.3912712930792008  0.7499996810283779  0.2716607906973729
  0.1668664973889923  0.0398121297012437  0.2998516485961211
  0.6668986393065331  0.4602005493673845  0.2000723430426936
  0.3332066356308138  0.5397956262088172  0.7996966832899397
  0.3332058943391232  0.9602036416497868  0.7997170224953377
  0.9730718020954822  0.2499900165539259  0.3291095484757496
  0.4731068414614462  0.2500022818063066  0.1710846482866802
  0.5269852787491681  0.7499894888871161  0.8295367764737249
  0.6086051223571052  0.2499939426110484  0.7284201431774721
  0.6669018926382991  0.0398002981838414  0.2000672180380378
  0.1668660367107504  0.4601865026613399  0.2998656207595657
  0.7800717064358094  0.2500006556604205  0.4970596892193181
  0.7198782232999806  0.7500002650989970 -0.0029241710672785
  0.2800939786019792  0.2500005712522526  1.0028949728056913
  0.2198995355213498  0.7499993907992660  0.5029314919707640
 
 -0.22477202E-02  0.13759282E-05  0.14869173E-02
  0.22371949E-02  0.27040316E-05  0.15231710E-02
 -0.22775770E-02 -0.11317786E-05 -0.14768318E-02
  0.22754305E-02  0.15156489E-05 -0.15002424E-02
  0.18383477E-04  0.72450300E-05  0.25109422E-04
  0.56179385E-04  0.11774726E-03 -0.15285256E-03
  0.50138578E-04 -0.10593145E-03 -0.16999479E-03
  0.25840466E-04  0.12745718E-05  0.72547549E-05
  0.85473949E-02 -0.25769916E-05  0.61523674E-02
  0.12668294E-02 -0.40410481E-02  0.32574039E-02
  0.12693293E-02  0.40397270E-02  0.32509162E-02
 -0.85708509E-02 -0.52742807E-05 -0.62040559E-02
  0.12162610E-01  0.78437104E-06 -0.15341170E-02
 -0.85930100E-02 -0.10267174E-05  0.61959558E-02
 -0.12441192E-02 -0.40358837E-02 -0.32088438E-02
 -0.11887742E-02  0.40583350E-02  0.31820357E-02
  0.12903623E-02 -0.39792807E-02 -0.32289274E-02
  0.12875001E-02  0.39747192E-02 -0.32195510E-02
 -0.12114087E-01 -0.21796383E-05  0.14818369E-02
 -0.12083495E-01  0.13790432E-05 -0.13912990E-02
  0.12147393E-01 -0.31837731E-05  0.15759159E-02
  0.84721143E-02 -0.61201374E-05 -0.61340704E-02
 -0.11871196E-02 -0.40570870E-02  0.31859975E-02
 -0.12414836E-02  0.40328659E-02 -0.31999948E-02
 -0.20994196E-02  0.10896521E-06  0.85468050E-03
  0.20546489E-02  0.49162814E-06  0.85239112E-03
 -0.21051474E-02  0.76783904E-06 -0.87867046E-03
  0.20748504E-02  0.10093836E-05 -0.85653897E-03
 
           1
   1.00000000000000     
 -0.95305897E+00 -0.55610891E-01 -0.56898767E-01 -0.89680414E+00
  0.11240831E+00  0.24999728E+00  0.44776489E+00
  0.38760247E+00  0.74999845E+00  0.94779078E+00
  0.61242148E+00  0.24999939E+00  0.52228915E-01
  0.88760763E+00  0.75000182E+00  0.55223208E+00
  0.99999898E+00  0.35524812E-04  0.47719603E-04
  0.49993447E+00  0.50016050E+00  0.49979887E+00
  0.49990476E+00  0.99988067E+00  0.49976460E+00
  0.30788693E-04  0.50000255E+00  0.17477484E-04
  0.10946592E+00  0.24999722E+00  0.77290913E+00
  0.83327347E+00  0.53914737E+00  0.70095156E+00
  0.83327670E+00  0.96085675E+00  0.70094800E+00
  0.89047197E+00  0.74999560E+00  0.22709431E+00
  0.28117080E-01  0.75000053E+00  0.67030295E+00
  0.39044656E+00  0.74999951E+00  0.27296543E+00
  0.16674709E+00  0.39147233E-01  0.29917599E+00
  0.66678454E+00  0.46086914E+00  0.20074236E+00
  0.33333048E+00  0.53914005E+00  0.79901679E+00
  0.33332947E+00  0.96085846E+00  0.79903911E+00
  0.97190912E+00  0.24998966E+00  0.32942157E+00
  0.47194710E+00  0.25000251E+00  0.17079169E+00
  0.52815116E+00  0.74998896E+00  0.82986860E+00
  0.60941826E+00  0.24999293E+00  0.72712854E+00
  0.66678796E+00  0.39131909E-01  0.20073807E+00
  0.16674688E+00  0.46085090E+00  0.29919182E+00
  0.77987021E+00  0.25000067E+00  0.49723965E+00
  0.72007542E+00  0.75000035E+00  0.99725531E+00
  0.27989193E+00  0.25000070E+00  0.27099579E-02
  0.22009867E+00  0.74999956E+00  0.50275114E+00
  0.00000000E+00  0.00000000E+00  0.00000000E+00
  0.00000000E+00  0.00000000E+00  0.00000000E+00
  0.00000000E+00  0.00000000E+00  0.00000000E+00
  0.00000000E+00  0.00000000E+00  0.00000000E+00
  0.00000000E+00  0.00000000E+00  0.00000000E+00
  0.00000000E+00  0.00000000E+00  0.00000000E+00
  0.00000000E+00  0.00000000E+00  0.00000000E+00
  0.00000000E+00  0.00000000E+00  0.00000000E+00
  0.00000000E+00  0.00000000E+00  0.00000000E+00
  0.00000000E+00  0.00000000E+00  0.00000000E+00
  0.00000000E+00  0.00000000E+00  0.00000000E+00
  0.00000000E+00  0.00000000E+00  0.00000000E+00
  0.00000000E+00  0.00000000E+00  0.00000000E+00
  0.00000000E+00  0.00000000E+00  0.00000000E+00
  0.00000000E+00  0.00000000E+00  0.00000000E+00
  0.00000000E+00  0.00000000E+00  0.00000000E+00
  0.00000000E+00  0.00000000E+00  0.00000000E+00
  0.00000000E+00  0.00000000E+00  0.00000000E+00
  0.00000000E+00  0.00000000E+00  0.00000000E+00
  0.00000000E+00  0.00000000E+00  0.00000000E+00
  0.00000000E+00  0.00000000E+00  0.00000000E+00
  0.00000000E+00  0.00000000E+00  0.00000000E+00
  0.00000000E+00  0.00000000E+00  0.00000000E+00
  0.00000000E+00  0.00000000E+00  0.00000000E+00
  0.00000000E+00  0.00000000E+00  0.00000000E+00
  0.00000000E+00  0.00000000E+00  0.00000000E+00
  0.00000000E+00  0.00000000E+00  0.00000000E+00
  0.00000000E+00  0.00000000E+00  0.00000000E+00
  0.00000000E+00  0.00000000E+00  0.00000000E+00
  0.00000000E+00  0.00000000E+00  0.00000000E+00
  0.00000000E+00  0.00000000E+00  0.00000000E+00
  0.00000000E+00  0.00000000E+00  0.00000000E+00
  0.00000000E+00  0.00000000E+00  0.00000000E+00
  0.00000000E+00  0.00000000E+00  0.00000000E+00
  0.00000000E+00  0.00000000E+00  0.00000000E+00
  0.00000000E+00  0.00000000E+00  0.00000000E+00
  0.00000000E+00  0.00000000E+00  0.00000000E+00
  0.00000000E+00  0.00000000E+00  0.00000000E+00
  0.00000000E+00  0.00000000E+00  0.00000000E+00
  0.00000000E+00  0.00000000E+00  0.00000000E+00
  0.00000000E+00  0.00000000E+00  0.00000000E+00
  0.00000000E+00  0.00000000E+00  0.00000000E+00
  0.00000000E+00  0.00000000E+00  0.00000000E+00
  0.00000000E+00  0.00000000E+00  0.00000000E+00
  0.00000000E+00  0.00000000E+00  0.00000000E+00
  0.00000000E+00  0.00000000E+00  0.00000000E+00
  0.00000000E+00  0.00000000E+00  0.00000000E+00
  0.00000000E+00  0.00000000E+00  0.00000000E+00
  0.00000000E+00  0.00000000E+00  0.00000000E+00
  0.00000000E+00  0.00000000E+00  0.00000000E+00
  0.00000000E+00  0.00000000E+00  0.00000000E+00
  0.00000000E+00  0.00000000E+00  0.00000000E+00
  0.00000000E+00  0.00000000E+00  0.00000000E+00
  0.00000000E+00  0.00000000E+00  0.00000000E+00
  0.00000000E+00  0.00000000E+00  0.00000000E+00
  0.00000000E+00  0.00000000E+00  0.00000000E+00
