OXC
   1.00000000000000     
    10.4191024099099483    0.0000000000000000    0.0000000000000000
     0.0000000000000000    6.0699434667161691   -0.0000000450567787
     0.0000000000000000   -0.0000017818344926    4.7491884620912188
   P    Li   O    Fe
     4     4    16     4
Direct
  0.0939942646304724  0.2500000000006345  0.4181099059050528
  0.4060057353695277  0.7500000000006346  0.9181109059050572
  0.5939942646304721  0.2499999999993654  0.0818880940949452
  0.9060057353695279  0.7499999999993654  0.5818890940949428
  0.0000000000000000  0.0000000000000000 -0.0000000000000000
  0.5000000000000000  0.5000000000000000  0.5000000000000000
  0.5000000000000000  0.0000000000000000  0.5000000000000000
  0.0000000000000000  0.5000000000000000 -0.0000000000000000
  0.0960414521127695  0.2499999999975076  0.7416591686121418
  0.8347602742287217  0.5465600357095477  0.7147404782255933
  0.8347602742287217  0.9534409642925977  0.7147404782224962
  0.9039595478872354  0.7500000000024922  0.2583418313878631
  0.0437221793626466  0.7500000000002449  0.7078308949640453
  0.4039585478872304  0.7499999999975078  0.2416581686121369
  0.1652397257712784  0.0465600357074073  0.2852605217775009
  0.6652397257712783  0.4534399642925926  0.2147394782224990
  0.3347602742287216  0.5465600357074069  0.7852605217775013
  0.3347602742287216  0.9534409642904569  0.7852605217744042
  0.9562778206373532  0.2499999999997551  0.2921701050359523
  0.4562778206373534  0.2500000000002450  0.2078298949640476
  0.5437221793626468  0.7499999999997551  0.7921711050359497
  0.5960414521127692  0.2500000000024926  0.7583428313878603
  0.6652397257712783  0.0465600357095477  0.2147394782255959
  0.1652397257712784  0.4534399642904524  0.2852605217744041
  0.7809469666706454  0.2499999999976346  0.5253570413214192
  0.7190530333293546  0.7499999999976342  0.0253590413214214
  0.2809469666706452  0.2500000000023654  0.9746419586785762
  0.2190530333293548  0.7500000000023658  0.4746419586785761
 
  0.00000000E+00  0.00000000E+00  0.00000000E+00
  0.00000000E+00  0.00000000E+00  0.00000000E+00
  0.00000000E+00  0.00000000E+00  0.00000000E+00
  0.00000000E+00  0.00000000E+00  0.00000000E+00
  0.00000000E+00  0.00000000E+00  0.00000000E+00
  0.00000000E+00  0.00000000E+00  0.00000000E+00
  0.00000000E+00  0.00000000E+00  0.00000000E+00
  0.00000000E+00  0.00000000E+00  0.00000000E+00
  0.00000000E+00  0.00000000E+00  0.00000000E+00
  0.00000000E+00  0.00000000E+00  0.00000000E+00
  0.00000000E+00  0.00000000E+00  0.00000000E+00
  0.00000000E+00  0.00000000E+00  0.00000000E+00
  0.00000000E+00  0.00000000E+00  0.00000000E+00
  0.00000000E+00  0.00000000E+00  0.00000000E+00
  0.00000000E+00  0.00000000E+00  0.00000000E+00
  0.00000000E+00  0.00000000E+00  0.00000000E+00
  0.00000000E+00  0.00000000E+00  0.00000000E+00
  0.00000000E+00  0.00000000E+00  0.00000000E+00
  0.00000000E+00  0.00000000E+00  0.00000000E+00
  0.00000000E+00  0.00000000E+00  0.00000000E+00
  0.00000000E+00  0.00000000E+00  0.00000000E+00
  0.00000000E+00  0.00000000E+00  0.00000000E+00
  0.00000000E+00  0.00000000E+00  0.00000000E+00
  0.00000000E+00  0.00000000E+00  0.00000000E+00
  0.00000000E+00  0.00000000E+00  0.00000000E+00
  0.00000000E+00  0.00000000E+00  0.00000000E+00
  0.00000000E+00  0.00000000E+00  0.00000000E+00
  0.00000000E+00  0.00000000E+00  0.00000000E+00
