Li4 Fe4 P4 O16                          
   1.00000000000000     
     9.5093176166916926    0.0000000000000000    0.0000000000000000
     0.0000000000000000   12.1548184413850429    0.0000000000000000
     0.0000000000000000    0.0000000000000000   10.4240504871157782
   Li   Fe   P    O 
    16    16    16    64
Direct
  0.0000000000000000  0.0000000000000000  0.0000000000000000
  0.0000000000000000  0.5000000000000000  0.0000000000000000
  0.5000000000000000  0.0000000000000000  0.0000000000000000
  0.5000000000000000  0.5000000000000000  0.0000000000000000
  0.2500000000000000  0.2500000000000000  0.5000000000000000
  0.2500000000000000  0.7500000000000000  0.5000000000000000
  0.7500000000000000  0.2500000000000000  0.5000000000000000
  0.7500000000000000  0.7500000000000000  0.5000000000000000
  0.2500000000000000  0.0000000000000000  0.5000000000000000
  0.2500000000000000  0.5000000000000000  0.5000000000000000
  0.7500000000000000  0.0000000000000000  0.5000000000000000
  0.7500000000000000  0.5000000000000000  0.5000000000000000
  0.0000000000000000  0.2500000000000000  0.0000000000000000
  0.0000000000000000  0.7500000000000000  0.0000000000000000
  0.5000000000000000  0.2500000000000000  0.0000000000000000
  0.5000000000000000  0.7500000000000000  0.0000000000000000
  0.2625468229593437  0.1250000000000000  0.7811268465188661
  0.2625468229593437  0.6250000000000000  0.7811268465188661
  0.7625468229593437  0.1250000000000000  0.7811268465188661
  0.7625468229593437  0.6250000000000000  0.7811268465188661
  0.0125468229593437  0.3750000000000000  0.7188731534811339
  0.0125468229593437  0.8750000000000000  0.7188731534811339
  0.5125468229593437  0.3750000000000000  0.7188731534811339
  0.5125468229593437  0.8750000000000000  0.7188731534811339
  0.4874531770406563  0.1250000000000000  0.2811268465188661
  0.4874531770406563  0.6250000000000000  0.2811268465188661
  0.9874531770406563  0.1250000000000000  0.2811268465188661
  0.9874531770406563  0.6250000000000000  0.2811268465188661
  0.2374531770406563  0.3750000000000000  0.2188731534811339
  0.2374531770406563  0.8750000000000000  0.2188731534811339
  0.7374531770406563  0.3750000000000000  0.2188731534811339
  0.7374531770406563  0.8750000000000000  0.2188731534811339
  0.2090367220380429  0.1250000000000000  0.0945216631056098
  0.2090367220380429  0.6250000000000000  0.0945216631056098
  0.7090367220380429  0.1250000000000000  0.0945216631056098
  0.7090367220380429  0.6250000000000000  0.0945216631056098
  0.4590367220380429  0.3750000000000000  0.4054783368943902
  0.4590367220380429  0.8750000000000000  0.4054783368943902
  0.9590367220380429  0.3750000000000000  0.4054783368943902
  0.9590367220380429  0.8750000000000000  0.4054783368943902
  0.0409632779619571  0.1250000000000000  0.5945216631056098
  0.0409632779619571  0.6250000000000000  0.5945216631056098
  0.5409632779619571  0.1250000000000000  0.5945216631056098
  0.5409632779619571  0.6250000000000000  0.5945216631056098
  0.2909632779619571  0.3750000000000000  0.9054783368943902
  0.2909632779619571  0.8750000000000000  0.9054783368943902
  0.7909632779619571  0.3750000000000000  0.9054783368943902
  0.7909632779619571  0.8750000000000000  0.9054783368943902
  0.3706858411779521  0.1250000000000000  0.0966133055566942
  0.3706858411779521  0.6250000000000000  0.0966133055566942
  0.8706858411779521  0.1250000000000000  0.0966133055566942
  0.8706858411779521  0.6250000000000000  0.0966133055566942
  0.3573140244772190  0.2733997719471049  0.8342089225080684
  0.3573140244772190  0.7733997719471049  0.8342089225080684
  0.8573140244772190  0.2733997719471049  0.8342089225080684
  0.8573140244772190  0.7733997719471049  0.8342089225080684
  0.3573140244772190  0.4766002280528951  0.8342089225080684
  0.3573140244772190  0.9766002280528951  0.8342089225080684
  0.8573140244772190  0.4766002280528951  0.8342089225080684
  0.8573140244772190  0.9766002280528951  0.8342089225080684
  0.1293141588220479  0.3750000000000000  0.9033866944433058
  0.1293141588220479  0.8750000000000000  0.9033866944433058
  0.6293141588220479  0.3750000000000000  0.9033866944433058
  0.6293141588220479  0.8750000000000000  0.9033866944433058
  0.3535949408109076  0.3750000000000000  0.0432198048898584
  0.3535949408109076  0.8750000000000000  0.0432198048898584
  0.8535949408109076  0.3750000000000000  0.0432198048898584
  0.8535949408109076  0.8750000000000000  0.0432198048898584
  0.1206858411779521  0.3750000000000000  0.4033866944433058
  0.1206858411779521  0.8750000000000000  0.4033866944433058
  0.6206858411779521  0.3750000000000000  0.4033866944433058
  0.6206858411779521  0.8750000000000000  0.4033866944433058
  0.1426859755227810  0.0233997719471049  0.1657910774919316
  0.1426859755227810  0.5233997719471049  0.1657910774919316
  0.6426859755227810  0.0233997719471049  0.1657910774919316
  0.6426859755227810  0.5233997719471049  0.1657910774919316
  0.1073140244772190  0.2266002280528951  0.6657910774919316
  0.1073140244772190  0.7266002280528951  0.6657910774919316
  0.6073140244772190  0.2266002280528951  0.6657910774919316
  0.6073140244772190  0.7266002280528951  0.6657910774919316
  0.3926859755227810  0.2733997719471049  0.3342089225080684
  0.3926859755227810  0.7733997719471049  0.3342089225080684
  0.8926859755227810  0.2733997719471049  0.3342089225080684
  0.8926859755227810  0.7733997719471049  0.3342089225080684
  0.3926859755227810  0.4766002280528951  0.3342089225080684
  0.3926859755227810  0.9766002280528951  0.3342089225080684
  0.8926859755227810  0.4766002280528951  0.3342089225080684
  0.8926859755227810  0.9766002280528951  0.3342089225080684
  0.1464050591890924  0.1250000000000000  0.9567801951101416
  0.1464050591890924  0.6250000000000000  0.9567801951101416
  0.6464050591890924  0.1250000000000000  0.9567801951101416
  0.6464050591890924  0.6250000000000000  0.9567801951101416
  0.1035949408109076  0.1250000000000000  0.4567801951101416
  0.1035949408109076  0.6250000000000000  0.4567801951101416
  0.6035949408109076  0.1250000000000000  0.4567801951101416
  0.6035949408109076  0.6250000000000000  0.4567801951101416
  0.3964050591890924  0.3750000000000000  0.5432198048898584
  0.3964050591890924  0.8750000000000000  0.5432198048898584
  0.8964050591890924  0.3750000000000000  0.5432198048898584
  0.8964050591890924  0.8750000000000000  0.5432198048898584
  0.3793141588220479  0.1250000000000000  0.5966133055566942
  0.3793141588220479  0.6250000000000000  0.5966133055566942
  0.8793141588220479  0.1250000000000000  0.5966133055566942
  0.8793141588220479  0.6250000000000000  0.5966133055566942
  0.1073140244772190  0.0233997719471049  0.6657910774919316
  0.1073140244772190  0.5233997719471049  0.6657910774919316
  0.6073140244772190  0.0233997719471049  0.6657910774919316
  0.6073140244772190  0.5233997719471049  0.6657910774919316
  0.1426859755227810  0.2266002280528951  0.1657910774919316
  0.1426859755227810  0.7266002280528951  0.1657910774919316
  0.6426859755227810  0.2266002280528951  0.1657910774919316
  0.6426859755227810  0.7266002280528951  0.1657910774919316
 
             NaN             NaN             NaN
             NaN             NaN             NaN
             NaN             NaN             NaN
             NaN             NaN             NaN
             NaN             NaN             NaN
             NaN             NaN             NaN
             NaN             NaN             NaN
             NaN             NaN             NaN
             NaN             NaN             NaN
             NaN             NaN             NaN
             NaN             NaN             NaN
             NaN             NaN             NaN
             NaN             NaN             NaN
             NaN             NaN             NaN
             NaN             NaN             NaN
             NaN             NaN             NaN
             NaN             NaN             NaN
             NaN             NaN             NaN
             NaN             NaN             NaN
             NaN             NaN             NaN
             NaN             NaN             NaN
             NaN             NaN             NaN
             NaN             NaN             NaN
             NaN             NaN             NaN
             NaN             NaN             NaN
             NaN             NaN             NaN
             NaN             NaN             NaN
             NaN             NaN             NaN
             NaN             NaN             NaN
             NaN             NaN             NaN
             NaN             NaN             NaN
             NaN             NaN             NaN
             NaN             NaN             NaN
             NaN             NaN             NaN
             NaN             NaN             NaN
             NaN             NaN             NaN
             NaN             NaN             NaN
             NaN             NaN             NaN
             NaN             NaN             NaN
             NaN             NaN             NaN
             NaN             NaN             NaN
             NaN             NaN             NaN
             NaN             NaN             NaN
             NaN             NaN             NaN
             NaN             NaN             NaN
             NaN             NaN             NaN
             NaN             NaN             NaN
             NaN             NaN             NaN
             NaN             NaN             NaN
             NaN             NaN             NaN
             NaN             NaN             NaN
             NaN             NaN             NaN
             NaN             NaN             NaN
             NaN             NaN             NaN
             NaN             NaN             NaN
             NaN             NaN             NaN
             NaN             NaN             NaN
             NaN             NaN             NaN
             NaN             NaN             NaN
             NaN             NaN             NaN
             NaN             NaN             NaN
             NaN             NaN             NaN
             NaN             NaN             NaN
             NaN             NaN             NaN
             NaN             NaN             NaN
             NaN             NaN             NaN
             NaN             NaN             NaN
             NaN             NaN             NaN
             NaN             NaN             NaN
             NaN             NaN             NaN
             NaN             NaN             NaN
             NaN             NaN             NaN
             NaN             NaN             NaN
             NaN             NaN             NaN
             NaN             NaN             NaN
             NaN             NaN             NaN
             NaN             NaN             NaN
             NaN             NaN             NaN
             NaN             NaN             NaN
             NaN             NaN             NaN
             NaN             NaN             NaN
             NaN             NaN             NaN
             NaN             NaN             NaN
             NaN             NaN             NaN
             NaN             NaN             NaN
             NaN             NaN             NaN
             NaN             NaN             NaN
             NaN             NaN             NaN
             NaN             NaN             NaN
             NaN             NaN             NaN
             NaN             NaN             NaN
             NaN             NaN             NaN
             NaN             NaN             NaN
             NaN             NaN             NaN
             NaN             NaN             NaN
             NaN             NaN             NaN
             NaN             NaN             NaN
             NaN             NaN             NaN
             NaN             NaN             NaN
             NaN             NaN             NaN
             NaN             NaN             NaN
             NaN             NaN             NaN
             NaN             NaN             NaN
             NaN             NaN             NaN
             NaN             NaN             NaN
             NaN             NaN             NaN
             NaN             NaN             NaN
             NaN             NaN             NaN
             NaN             NaN             NaN
             NaN             NaN             NaN
             NaN             NaN             NaN
             NaN             NaN             NaN
