Li4 Fe4 P4 O16                          
   1.00000000000000     
     9.5093176166916926    0.0000000000000000   -0.0000000000000000
     0.0000000000000000   12.1548184413850429    0.0000000000000000
     0.0000000000000000    0.0000000000000000   10.4240504871157782
   Li   Fe   P    O 
    16    16    16    64
Direct
  0.0000000000000000  0.0000000000000000 -0.0000000000000000
  0.0000000000000000  0.5000000000000000 -0.0000000000000000
  0.5000000000000000  0.0000000000000000 -0.0000000000000000
  0.5000000000000000  0.5000000000000000 -0.0000000000000000
  0.2500000000000000  0.2500000000000000  0.5000000000000000
  0.2500000000000000  0.7500000000000000  0.5000000000000000
  0.7500000000000000  0.2500000000000000  0.5000000000000000
  0.7500000000000000  0.7500000000000000  0.5000000000000000
  0.2500000000000000  0.0000000000000000  0.5000000000000000
  0.2500000000000000  0.5000000000000000  0.5000000000000000
  0.7500000000000000  0.0000000000000000  0.5000000000000000
  0.7500000000000000  0.5000000000000000  0.5000000000000000
  0.0000000000000000  0.2500000000000000 -0.0000000000000000
  0.0000000000000000  0.7500000000000000 -0.0000000000000000
  0.5000000000000000  0.2500000000000000 -0.0000000000000000
  0.5000000000000000  0.7500000000000000 -0.0000000000000000
  0.2625468229593406  0.1250000000000000  0.7811268465188669
  0.2625468229593406  0.6250000000000000  0.7811268465188669
  0.7625468229593405  0.1250000000000000  0.7811268465188669
  0.7625468229593405  0.6250000000000000  0.7811268465188669
  0.0125468229593406  0.3750000000000000  0.7188731534811331
  0.0125468229593406  0.8750000000000000  0.7188731534811331
  0.5125468229593405  0.3750000000000000  0.7188731534811331
  0.5125468229593405  0.8750000000000000  0.7188731534811331
  0.4874531770406594  0.1250000000000000  0.2811268465188669
  0.4874531770406594  0.6250000000000000  0.2811268465188669
  0.9874531770406595  0.1250000000000000  0.2811268465188669
  0.9874531770406595  0.6250000000000000  0.2811268465188669
  0.2374531770406594  0.3750000000000000  0.2188731534811332
  0.2374531770406594  0.8750000000000000  0.2188731534811332
  0.7374531770406595  0.3750000000000000  0.2188731534811332
  0.7374531770406595  0.8750000000000000  0.2188731534811332
  0.2090367220380401  0.1250000000000000  0.0945216631056107
  0.2090367220380401  0.6250000000000000  0.0945216631056107
  0.7090367220380400  0.1250000000000000  0.0945216631056107
  0.7090367220380400  0.6250000000000000  0.0945216631056107
  0.4590367220380401  0.3750000000000000  0.4054783368943893
  0.4590367220380401  0.8750000000000000  0.4054783368943893
  0.9590367220380400  0.3750000000000000  0.4054783368943893
  0.9590367220380400  0.8750000000000000  0.4054783368943893
  0.0409632779619599  0.1250000000000000  0.5945216631056106
  0.0409632779619599  0.6250000000000000  0.5945216631056106
  0.5409632779619600  0.1250000000000000  0.5945216631056106
  0.5409632779619600  0.6250000000000000  0.5945216631056106
  0.2909632779619599  0.3750000000000000  0.9054783368943894
  0.2909632779619599  0.8750000000000000  0.9054783368943894
  0.7909632779619600  0.3750000000000000  0.9054783368943894
  0.7909632779619600  0.8750000000000000  0.9054783368943894
  0.3706858411779549  0.1250000000000000  0.0966133055566964
  0.3706858411779549  0.6250000000000000  0.0966133055566964
  0.8706858411779548  0.1250000000000000  0.0966133055566964
  0.8706858411779548  0.6250000000000000  0.0966133055566964
  0.3573140244772184  0.2733997719471029  0.8342089225080702
  0.3573140244772184  0.7733997719471030  0.8342089225080702
  0.8573140244772184  0.2733997719471029  0.8342089225080702
  0.8573140244772184  0.7733997719471030  0.8342089225080702
  0.3573140244772184  0.4766002280528971  0.8342089225080702
  0.3573140244772184  0.9766002280528970  0.8342089225080702
  0.8573140244772184  0.4766002280528971  0.8342089225080702
  0.8573140244772184  0.9766002280528970  0.8342089225080702
  0.1293141588220451  0.3750000000000000  0.9033866944433037
  0.1293141588220451  0.8750000000000000  0.9033866944433037
  0.6293141588220452  0.3750000000000000  0.9033866944433037
  0.6293141588220452  0.8750000000000000  0.9033866944433037
  0.3535949408109067  0.3750000000000000  0.0432198048898581
  0.3535949408109067  0.8750000000000000  0.0432198048898581
  0.8535949408109067  0.3750000000000000  0.0432198048898581
  0.8535949408109067  0.8750000000000000  0.0432198048898581
  0.1206858411779549  0.3750000000000000  0.4033866944433037
  0.1206858411779549  0.8750000000000000  0.4033866944433037
  0.6206858411779548  0.3750000000000000  0.4033866944433037
  0.6206858411779548  0.8750000000000000  0.4033866944433037
  0.1426859755227816  0.0233997719471029  0.1657910774919298
  0.1426859755227816  0.5233997719471030  0.1657910774919298
  0.6426859755227816  0.0233997719471029  0.1657910774919298
  0.6426859755227816  0.5233997719471030  0.1657910774919298
  0.1073140244772185  0.2266002280528971  0.6657910774919298
  0.1073140244772185  0.7266002280528970  0.6657910774919298
  0.6073140244772184  0.2266002280528971  0.6657910774919298
  0.6073140244772184  0.7266002280528970  0.6657910774919298
  0.3926859755227816  0.2733997719471029  0.3342089225080702
  0.3926859755227816  0.7733997719471030  0.3342089225080702
  0.8926859755227816  0.2733997719471029  0.3342089225080702
  0.8926859755227816  0.7733997719471030  0.3342089225080702
  0.3926859755227816  0.4766002280528971  0.3342089225080702
  0.3926859755227816  0.9766002280528970  0.3342089225080702
  0.8926859755227816  0.4766002280528971  0.3342089225080702
  0.8926859755227816  0.9766002280528970  0.3342089225080702
  0.1464050591890934  0.1250000000000000  0.9567801951101419
  0.1464050591890934  0.6250000000000000  0.9567801951101419
  0.6464050591890933  0.1250000000000000  0.9567801951101419
  0.6464050591890933  0.6250000000000000  0.9567801951101419
  0.1035949408109067  0.1250000000000000  0.4567801951101419
  0.1035949408109067  0.6250000000000000  0.4567801951101419
  0.6035949408109067  0.1250000000000000  0.4567801951101419
  0.6035949408109067  0.6250000000000000  0.4567801951101419
  0.3964050591890933  0.3750000000000000  0.5432198048898581
  0.3964050591890933  0.8750000000000000  0.5432198048898581
  0.8964050591890933  0.3750000000000000  0.5432198048898581
  0.8964050591890933  0.8750000000000000  0.5432198048898581
  0.3793141588220451  0.1250000000000000  0.5966133055566963
  0.3793141588220451  0.6250000000000000  0.5966133055566963
  0.8793141588220452  0.1250000000000000  0.5966133055566963
  0.8793141588220452  0.6250000000000000  0.5966133055566963
  0.1073140244772185  0.0233997719471029  0.6657910774919298
  0.1073140244772185  0.5233997719471030  0.6657910774919298
  0.6073140244772184  0.0233997719471029  0.6657910774919298
  0.6073140244772184  0.5233997719471030  0.6657910774919298
  0.1426859755227816  0.2266002280528971  0.1657910774919298
  0.1426859755227816  0.7266002280528970  0.1657910774919298
  0.6426859755227816  0.2266002280528971  0.1657910774919298
  0.6426859755227816  0.7266002280528970  0.1657910774919298
 
  0.00000000E+00  0.00000000E+00  0.00000000E+00
  0.00000000E+00  0.00000000E+00  0.00000000E+00
  0.00000000E+00  0.00000000E+00  0.00000000E+00
  0.00000000E+00  0.00000000E+00  0.00000000E+00
  0.00000000E+00  0.00000000E+00  0.00000000E+00
  0.00000000E+00  0.00000000E+00  0.00000000E+00
  0.00000000E+00  0.00000000E+00  0.00000000E+00
  0.00000000E+00  0.00000000E+00  0.00000000E+00
  0.00000000E+00  0.00000000E+00  0.00000000E+00
  0.00000000E+00  0.00000000E+00  0.00000000E+00
  0.00000000E+00  0.00000000E+00  0.00000000E+00
  0.00000000E+00  0.00000000E+00  0.00000000E+00
  0.00000000E+00  0.00000000E+00  0.00000000E+00
  0.00000000E+00  0.00000000E+00  0.00000000E+00
  0.00000000E+00  0.00000000E+00  0.00000000E+00
  0.00000000E+00  0.00000000E+00  0.00000000E+00
  0.00000000E+00  0.00000000E+00  0.00000000E+00
  0.00000000E+00  0.00000000E+00  0.00000000E+00
  0.00000000E+00  0.00000000E+00  0.00000000E+00
  0.00000000E+00  0.00000000E+00  0.00000000E+00
  0.00000000E+00  0.00000000E+00  0.00000000E+00
  0.00000000E+00  0.00000000E+00  0.00000000E+00
  0.00000000E+00  0.00000000E+00  0.00000000E+00
  0.00000000E+00  0.00000000E+00  0.00000000E+00
  0.00000000E+00  0.00000000E+00  0.00000000E+00
  0.00000000E+00  0.00000000E+00  0.00000000E+00
  0.00000000E+00  0.00000000E+00  0.00000000E+00
  0.00000000E+00  0.00000000E+00  0.00000000E+00
  0.00000000E+00  0.00000000E+00  0.00000000E+00
  0.00000000E+00  0.00000000E+00  0.00000000E+00
  0.00000000E+00  0.00000000E+00  0.00000000E+00
  0.00000000E+00  0.00000000E+00  0.00000000E+00
  0.00000000E+00  0.00000000E+00  0.00000000E+00
  0.00000000E+00  0.00000000E+00  0.00000000E+00
  0.00000000E+00  0.00000000E+00  0.00000000E+00
  0.00000000E+00  0.00000000E+00  0.00000000E+00
  0.00000000E+00  0.00000000E+00  0.00000000E+00
  0.00000000E+00  0.00000000E+00  0.00000000E+00
  0.00000000E+00  0.00000000E+00  0.00000000E+00
  0.00000000E+00  0.00000000E+00  0.00000000E+00
  0.00000000E+00  0.00000000E+00  0.00000000E+00
  0.00000000E+00  0.00000000E+00  0.00000000E+00
  0.00000000E+00  0.00000000E+00  0.00000000E+00
  0.00000000E+00  0.00000000E+00  0.00000000E+00
  0.00000000E+00  0.00000000E+00  0.00000000E+00
  0.00000000E+00  0.00000000E+00  0.00000000E+00
  0.00000000E+00  0.00000000E+00  0.00000000E+00
  0.00000000E+00  0.00000000E+00  0.00000000E+00
  0.00000000E+00  0.00000000E+00  0.00000000E+00
  0.00000000E+00  0.00000000E+00  0.00000000E+00
  0.00000000E+00  0.00000000E+00  0.00000000E+00
  0.00000000E+00  0.00000000E+00  0.00000000E+00
  0.00000000E+00  0.00000000E+00  0.00000000E+00
  0.00000000E+00  0.00000000E+00  0.00000000E+00
  0.00000000E+00  0.00000000E+00  0.00000000E+00
  0.00000000E+00  0.00000000E+00  0.00000000E+00
  0.00000000E+00  0.00000000E+00  0.00000000E+00
  0.00000000E+00  0.00000000E+00  0.00000000E+00
  0.00000000E+00  0.00000000E+00  0.00000000E+00
  0.00000000E+00  0.00000000E+00  0.00000000E+00
  0.00000000E+00  0.00000000E+00  0.00000000E+00
  0.00000000E+00  0.00000000E+00  0.00000000E+00
  0.00000000E+00  0.00000000E+00  0.00000000E+00
  0.00000000E+00  0.00000000E+00  0.00000000E+00
  0.00000000E+00  0.00000000E+00  0.00000000E+00
  0.00000000E+00  0.00000000E+00  0.00000000E+00
  0.00000000E+00  0.00000000E+00  0.00000000E+00
  0.00000000E+00  0.00000000E+00  0.00000000E+00
  0.00000000E+00  0.00000000E+00  0.00000000E+00
  0.00000000E+00  0.00000000E+00  0.00000000E+00
  0.00000000E+00  0.00000000E+00  0.00000000E+00
  0.00000000E+00  0.00000000E+00  0.00000000E+00
  0.00000000E+00  0.00000000E+00  0.00000000E+00
  0.00000000E+00  0.00000000E+00  0.00000000E+00
  0.00000000E+00  0.00000000E+00  0.00000000E+00
  0.00000000E+00  0.00000000E+00  0.00000000E+00
  0.00000000E+00  0.00000000E+00  0.00000000E+00
  0.00000000E+00  0.00000000E+00  0.00000000E+00
  0.00000000E+00  0.00000000E+00  0.00000000E+00
  0.00000000E+00  0.00000000E+00  0.00000000E+00
  0.00000000E+00  0.00000000E+00  0.00000000E+00
  0.00000000E+00  0.00000000E+00  0.00000000E+00
  0.00000000E+00  0.00000000E+00  0.00000000E+00
  0.00000000E+00  0.00000000E+00  0.00000000E+00
  0.00000000E+00  0.00000000E+00  0.00000000E+00
  0.00000000E+00  0.00000000E+00  0.00000000E+00
  0.00000000E+00  0.00000000E+00  0.00000000E+00
  0.00000000E+00  0.00000000E+00  0.00000000E+00
  0.00000000E+00  0.00000000E+00  0.00000000E+00
  0.00000000E+00  0.00000000E+00  0.00000000E+00
  0.00000000E+00  0.00000000E+00  0.00000000E+00
  0.00000000E+00  0.00000000E+00  0.00000000E+00
  0.00000000E+00  0.00000000E+00  0.00000000E+00
  0.00000000E+00  0.00000000E+00  0.00000000E+00
  0.00000000E+00  0.00000000E+00  0.00000000E+00
  0.00000000E+00  0.00000000E+00  0.00000000E+00
  0.00000000E+00  0.00000000E+00  0.00000000E+00
  0.00000000E+00  0.00000000E+00  0.00000000E+00
  0.00000000E+00  0.00000000E+00  0.00000000E+00
  0.00000000E+00  0.00000000E+00  0.00000000E+00
  0.00000000E+00  0.00000000E+00  0.00000000E+00
  0.00000000E+00  0.00000000E+00  0.00000000E+00
  0.00000000E+00  0.00000000E+00  0.00000000E+00
  0.00000000E+00  0.00000000E+00  0.00000000E+00
  0.00000000E+00  0.00000000E+00  0.00000000E+00
  0.00000000E+00  0.00000000E+00  0.00000000E+00
  0.00000000E+00  0.00000000E+00  0.00000000E+00
  0.00000000E+00  0.00000000E+00  0.00000000E+00
  0.00000000E+00  0.00000000E+00  0.00000000E+00
  0.00000000E+00  0.00000000E+00  0.00000000E+00
  0.00000000E+00  0.00000000E+00  0.00000000E+00
  0.00000000E+00  0.00000000E+00  0.00000000E+00
