OXC                                     
   1.00000000000000     
     5.0011372396802711    0.0005805154945421    0.0011409187037092
    -2.4941118983045865    4.3348274582353321    0.0011225418847488
     0.8132510807143147    1.4063190456002113    9.5943875025609557
   Mn   O    Li
     4    12     8
Direct
  0.8328915592922032  0.1671155976078421 -0.0000068756357888
  0.1670920594913128  0.8328928959733553 -0.0000076468882328
  0.3328961329966461  0.6670991281815170  0.5000133361787383
  0.6671018095408978  0.3328941543933922  0.5000124917596067
  0.3952686129336935  0.3952687663947410  0.3860320291531926
  0.8952700151403354  0.8952747389455312  0.8860453450658692
  0.1047274265363826  0.1047309706323563  0.1139667718566355
  0.6047285247706664  0.6047274795484022  0.6139562701601485
  0.0370838158312729  0.6797338074858963  0.3878016198125994
  0.5370734210688802  0.1797188599591338  0.8878163135978528
  0.8202653125102488  0.4629154184959909  0.1122022803164996
  0.3202802652597043  0.9629230816513964  0.6121854205671461
  0.4629154484405517  0.8202661481734138  0.1121983259932427
  0.9629255394263040  0.3202795139375026  0.6121855454680079
  0.6797326444227028  0.0370799639549343  0.3878018313399881
  0.1797113570994792  0.5370770499256382  0.8878187745549844
  0.4999600683669775  0.4999961756267036  0.0000142124417485
  0.0000328742982583  0.0000296755243898  0.4999721208483145
  0.7499992784869229  0.7499842113941573  0.2499981465848216
  0.2500099116310077  0.2499958874130208  0.7500001677495574
  0.0889431041314362  0.4110558192540654  0.2500008038848572
  0.5889591278560976  0.9110562435994313  0.7499956795700370
  0.4110688074001018  0.0889393052608961  0.2499984465138669
  0.9110618930679268  0.5889481166662847  0.7499975891063091
 
  0.00000000E+00  0.00000000E+00  0.00000000E+00
  0.00000000E+00  0.00000000E+00  0.00000000E+00
  0.00000000E+00  0.00000000E+00  0.00000000E+00
  0.00000000E+00  0.00000000E+00  0.00000000E+00
  0.00000000E+00  0.00000000E+00  0.00000000E+00
  0.00000000E+00  0.00000000E+00  0.00000000E+00
  0.00000000E+00  0.00000000E+00  0.00000000E+00
  0.00000000E+00  0.00000000E+00  0.00000000E+00
  0.00000000E+00  0.00000000E+00  0.00000000E+00
  0.00000000E+00  0.00000000E+00  0.00000000E+00
  0.00000000E+00  0.00000000E+00  0.00000000E+00
  0.00000000E+00  0.00000000E+00  0.00000000E+00
  0.00000000E+00  0.00000000E+00  0.00000000E+00
  0.00000000E+00  0.00000000E+00  0.00000000E+00
  0.00000000E+00  0.00000000E+00  0.00000000E+00
  0.00000000E+00  0.00000000E+00  0.00000000E+00
  0.00000000E+00  0.00000000E+00  0.00000000E+00
  0.00000000E+00  0.00000000E+00  0.00000000E+00
  0.00000000E+00  0.00000000E+00  0.00000000E+00
  0.00000000E+00  0.00000000E+00  0.00000000E+00
  0.00000000E+00  0.00000000E+00  0.00000000E+00
  0.00000000E+00  0.00000000E+00  0.00000000E+00
  0.00000000E+00  0.00000000E+00  0.00000000E+00
  0.00000000E+00  0.00000000E+00  0.00000000E+00
