Automatically generated K-points
0
Gamma
  6   6   3
0 0 0
