OXC
 1.0
  4.898159000000000   0.000000000000000   0.000000000000000
 -2.443248522401602   4.245293333632691   0.000000000000000
  0.794217908614827   1.373448391019625   9.400126919898627
  Mn   O  Li
   4  12   8
Direct
  0.832890820000000   0.167105660000000  -0.000001380000000 
  0.167110680000000   0.832885870000000  -0.000001310000000 
  0.332894560000000   0.667103730000000   0.500006080000000 
  0.667114440000000   0.332885350000000   0.500005680000000 
  0.393565500000000   0.393554260000000   0.386172470000000 
  0.893590430000000   0.893584380000000   0.886166580000000 
  0.106426540000000   0.106420280000000   0.113834360000000 
  0.606410320000000   0.606398380000000   0.613835520000000 
  0.036618700000000   0.680392020000000   0.387696590000000 
  0.536614650000000   0.180380490000000   0.887694180000000 
  0.819613350000000   0.463381520000000   0.112310630000000 
  0.319616900000000   0.963383480000000   0.612303380000000 
  0.463389770000000   0.819588160000000   0.112304530000000 
  0.963396040000000   0.319597250000000   0.612300640000000 
  0.680411820000000   0.036606140000000   0.387699110000000 
  0.180406230000000   0.536606670000000   0.887700410000000 
  0.499796360000000   0.500021780000000   0.000044630000000 
  0.000108160000000   0.000143890000000   0.499918360000000 
  0.749992640000000   0.749983370000000   0.250000540000000 
  0.250016470000000   0.250004420000000   0.750002310000000 
  0.088745180000000   0.411251050000000   0.250002300000000 
  0.588745510000000   0.911251900000000   0.750000600000000 
  0.411261400000000   0.088735590000000   0.250003270000000 
  0.911262540000000   0.588737370000000   0.749999520000000 
